DATASET = "thpack7";
INSTANCE = "079";

WIDTH = 233;
HEIGHT = 220;
LENGTH = 587;

NO_OF_SHAPES = 20;
size = [|
  64,48,46 |
  79,25,22 |
  89,85,33 |
  79,66,34 |
  79,54,31 |
  115,95,22 |
  76,54,44 |
  80,44,29 |
  66,33,26 |
  50,32,32 |
  116,93,21 |
  113,64,50 |
  101,80,31 |
  96,76,46 |
  61,61,26 |
  108,26,23 |
  96,88,31 |
  80,61,47 |
  87,74,35 |
  61,51,50 |
|];

verticality = [|
  1,1,1 |
  0,1,1 |
  0,0,1 |
  0,1,1 |
  0,1,1 |
  0,0,1 |
  1,1,1 |
  0,1,1 |
  0,1,1 |
  1,1,1 |
  0,0,1 |
  0,1,1 |
  0,0,1 |
  0,1,1 |
  0,0,1 |
  0,1,1 |
  0,0,1 |
  1,1,1 |
  0,0,1 |
  1,1,1 |
|];

box_count = [
  6,
  9,
  12,
  12,
  10,
  7,
  10,
  8,
  6,
  8,
  14,
  6,
  4,
  8,
  5,
  9,
  7,
  9,
  11,
  5,
];
